NAME          COPTPROB
OBJSENSE
  MIN
ROWS
 N  __OBJ___
 L  C46     
 L  C147    
 L  C171    
COLUMNS
    MARKER    'MARKER'                 'INTORG'
    x75       __OBJ___  69
    x75       C147      -1
    x75       C171      -1
    x859      __OBJ___  79
    x859      C46       -1
    x859      C147      -1
    x978      __OBJ___  20
    x978      C171      -1
    x1499     __OBJ___  51
    x1499     C46       -1
    x3087     __OBJ___  60
    x3087     C46       -1
    x3087     C171      -1
    MARKER    'MARKER'                 'INTEND'
RHS
    RHS       __OBJ___  -4357
    RHS       C46       -1
    RHS       C147      -1
    RHS       C171      -1
BOUNDS
 UP BOUND     x75       1
 UP BOUND     x859      1
 UP BOUND     x978      1
 UP BOUND     x1499     1
 UP BOUND     x3087     1
ENDATA
